Set parameter TokenServer to value "hpc-licenses.hpcc.usc.edu"
Set parameter TimeLimit to value 3600
Gurobi Optimizer version 9.5.1 build v9.5.1rc2 (linux64)
Thread count: 20 physical cores, 20 logical processors, using up to 20 threads
Optimize a model with 6007 rows, 4529 columns and 24534 nonzeros
Model fingerprint: 0xbcd1bcb7
Variable types: 4506 continuous, 23 integer (23 binary)
Coefficient statistics:
  Matrix range     [1e+00, 1e+00]
  Objective range  [3e-03, 1e+00]
  Bounds range     [1e+00, 1e+00]
  RHS range        [1e+00, 1e+02]
Presolve removed 1520 rows and 1515 columns
Presolve time: 0.10s
Presolved: 4487 rows, 3014 columns, 21975 nonzeros
Variable types: 2994 continuous, 20 integer (20 binary)
Found heuristic solution: objective 260.9990557

Root relaxation: objective 2.700822e+02, 2934 iterations, 0.16 seconds (0.19 work units)

    Nodes    |    Current Node    |     Objective Bounds      |     Work
 Expl Unexpl |  Obj  Depth IntInf | Incumbent    BestBd   Gap | It/Node Time

     0     0  270.08222    0    2  260.99906  270.08222  3.48%     -    0s
     0     0  269.92264    0    2  260.99906  269.92264  3.42%     -    0s
H    0     0                     263.0003694  269.87205  2.61%     -    0s
     0     0  269.87205    0    4  263.00037  269.87205  2.61%     -    0s
     0     0  269.73729    0    2  263.00037  269.73729  2.56%     -    0s
     0     0  269.49342    0    3  263.00037  269.49342  2.47%     -    0s
     0     0  269.35469    0    6  263.00037  269.35469  2.42%     -    0s
     0     0  269.27072    0    6  263.00037  269.27072  2.38%     -    1s
     0     0  269.23522    0    5  263.00037  269.23522  2.37%     -    1s
     0     0  269.21788    0    5  263.00037  269.21788  2.36%     -    1s
     0     0  269.21538    0    2  263.00037  269.21538  2.36%     -    1s
     0     0  268.85932    0    5  263.00037  268.85932  2.23%     -    1s
     0     0  268.85932    0    5  263.00037  268.85932  2.23%     -    1s
     0     0  268.85824    0    5  263.00037  268.85824  2.23%     -    1s
     0     0  268.85824    0    2  263.00037  268.85824  2.23%     -    1s
     0     0  268.85824    0    2  263.00037  268.85824  2.23%     -    1s
H    0     0                     264.6082615  268.85824  1.61%     -    1s
     0     0  268.78667    0    5  264.60826  268.78667  1.58%     -    1s
     0     0  268.78667    0    5  264.60826  268.78667  1.58%     -    1s
     0     0  268.78667    0    5  264.60826  268.78667  1.58%     -    1s
     0     0  268.78667    0    2  264.60826  268.78667  1.58%     -    1s
H    0     0                     268.0146852  268.78667  0.29%     -    1s
     0     0  268.78667    0    5  268.01469  268.78667  0.29%     -    1s
     0     0  268.78667    0    2  268.01469  268.78667  0.29%     -    1s
     0     0  268.78667    0    2  268.01469  268.78667  0.29%     -    1s
     0     0  268.78667    0    5  268.01469  268.78667  0.29%     -    2s
     0     0  268.78667    0    2  268.01469  268.78667  0.29%     -    2s
     0     0  268.78667    0    2  268.01469  268.78667  0.29%     -    2s
     0     0  268.78667    0    5  268.01469  268.78667  0.29%     -    2s
     0     0  268.78667    0    5  268.01469  268.78667  0.29%     -    2s
     0     0  268.78589    0    5  268.01469  268.78589  0.29%     -    2s
     0     0  268.78589    0    5  268.01469  268.78589  0.29%     -    2s
     0     0  268.78589    0    5  268.01469  268.78589  0.29%     -    2s
     0     0  268.78589    0    5  268.01469  268.78589  0.29%     -    2s
     0     0  268.78589    0    5  268.01469  268.78589  0.29%     -    2s
     0     0  268.78441    0    5  268.01469  268.78441  0.29%     -    2s
     0     0  268.78441    0    5  268.01469  268.78441  0.29%     -    2s
     0     0  268.44210    0    6  268.01469  268.44210  0.16%     -    2s
     0     0  268.44210    0    7  268.01469  268.44210  0.16%     -    2s
     0     0  268.07254    0    7  268.01469  268.07254  0.02%     -    2s
     0     0  268.01469    0    7  268.01469  268.01469  0.00%     -    2s

Cutting planes:
  Gomory: 4
  MIR: 427
  Flow cover: 6
  RLT: 10
  Relax-and-lift: 3

Explored 1 nodes (6670 simplex iterations) in 2.72 seconds (1.40 work units)
Thread count was 20 (of 20 available processors)

Solution count 4: 268.015 264.608 263 260.999 

Optimal solution found (tolerance 1.00e-04)
Best objective 2.680146851802e+02, best bound 2.680146851802e+02, gap 0.0000%



#########node  1
V1.8
#########node  2
0.0,1.0
#########node  3
0.9673366834170853,0.03266331658291466


Total Solving Time 3.1318583488464355
obj value 268.01468518016736
Policy Regret train (Sum) 13.487813242844421
Best Treatment Found train (%) 49.0
treatment classification acc train (%) 64.4
Policy Regret test (Sum) 61.813832268000596
Best Treatment Found test (%) 75.11
treatment classification acc test (%) 61.01
